(set-logic ALL)
(set-option :produce-models true)
(define-fun-rec str.toLower ((x String)) String
  (ite (= x "")
      ""
      (let ((Head (str.at x 0)))
        (str.++ 
          (ite (and (<= 65 (str.to_code Head)) 
                     (<= (str.to_code Head) 90))
               (str.from_code (+ (str.to_code Head) 32))
               Head)
          (str.toLower (str.substr x 1 (- (str.len x) 1)))))))
(declare-fun sym9 () String)
(declare-fun sym7 () String)
(declare-fun sym8 () String)
(declare-fun sym5 () String)
(declare-fun sym6 () String)
(define-fun Alphabet () RegLan 
	(re.* (re.union (str.to_re "A") (str.to_re "B") (str.to_re "a") (str.to_re "b") ))
)

(assert (str.in_re sym6 Alphabet))
(assert (str.in_re sym5 Alphabet))
(assert (str.in_re sym8 Alphabet))
(assert (str.in_re sym7 Alphabet))
(assert (str.in_re sym9 Alphabet))
(assert (not (= "" (str.toLower (str.++ sym5 sym7 )))))
(assert (not (= "" (str.toLower (str.++ (str.toLower sym8 )sym7 sym8 )))))
(assert (not (= "" (str.++ (str.++ (str.++ sym7 "A" )"a" )(str.toLower (str.++ sym7 sym5 ))))))
(assert (not (= "" (str.++ (str.++ (str.toLower sym6 )sym7 "A" )(str.toLower (str.++ sym5 sym7 ))))))
(assert (not (= (str.++ (str.++ sym7 "A" )(str.toLower sym5 ))"" )))
(assert (not (= "" sym5 )))
(assert (not (= "" (str.toLower (str.++ sym9 sym6 )))))
(assert (not (= (str.++ (str.toLower (str.++ sym5 sym7 ))"B" )"aA" )))
(assert (not (= (str.++ sym7 sym8 )"b" )))
(assert (not (= (str.++ (str.++ sym9 sym6 )"b" )"" )))
(assert (not (= "" (str.toLower sym8 ))))
(assert (not (= "" (str.toLower (str.++ sym5 sym7 )))))
(assert (not (= "" (str.toLower (str.toLower sym5 )))))
(assert (str.contains (str.++ (str.toLower sym8 )sym7 sym8 )"" ))
(assert (not (= "" (str.toLower (str.++ sym9 "b" )))))
(assert (not (= (str.toLower (str.++ (str.++ sym9 sym6 )"b" ))"" )))
(assert (not (= (str.toLower (str.toLower (str.++ sym5 sym7 )))"A" )))
(assert (not (= "" (str.toLower sym7 ))))
(assert (str.contains (str.++ sym9 "b" )"b" ))
(assert (str.contains (str.++ sym7 sym5 )"aA" ))
(assert (not (= (str.toLower sym5 )"b" )))
(assert (str.contains (str.++ sym9 sym6 )"B" ))
(assert (not (= (str.++ (str.toLower (str.++ sym9 "b" ))"B" )"b" )))
(assert (not (= "" (str.++ sym8 sym7 ))))
(assert (not (str.contains (str.++ (str.++ (str.toLower sym8 )"b" )"a" )"BB" )))
(assert (not (str.contains (str.toLower sym6 )"AB" )))
(assert (not (= "" (str.++ (str.toLower sym5 )sym7 sym5 ))))
(assert (str.contains sym7 "Bb" ))
(assert (not (= "" (str.toLower (str.toLower (str.++ sym5 sym7 ))))))
(assert (not (= "" (str.++ sym5 sym7 ))))
(assert (not (= (str.toLower sym5 )"Ba" )))
(assert (str.contains (str.++ (str.toLower sym8 )"b" )"ba" ))
(assert (not (= (str.++ (str.++ (str.++ sym7 sym5 )"a" )"A" )"" )))
(assert (not (= (str.toLower (str.++ sym9 "b" ))"aA" )))
(assert (not (str.contains (str.++ sym7 sym5 )"Ab" )))
(assert (str.contains (str.toLower (str.toLower (str.++ sym9 sym6 )))"b" ))
(assert (not (= (str.++ (str.++ (str.toLower sym5 )"B" )(str.toLower (str.++ sym5 sym7 )))"" )))
(assert (str.contains (str.toLower (str.toLower sym5 ))"aa" ))
(assert (str.contains (str.++ (str.++ (str.++ sym7 "A" )(str.toLower sym5 ))"A" )"aa" ))
(assert (not (= "" (str.++ (str.++ sym7 sym5 )"a" ))))
(assert (not (= sym8 "Aa" )))
(assert (not (= (str.toLower sym7 )"b" )))
(assert (not (= (str.++ (str.++ sym9 sym6 )sym9 "b" )"" )))
(assert (not (= "" (str.toLower sym9 ))))
(assert (not (= "" sym9 )))
(assert (not (= "" (str.toLower (str.toLower (str.++ sym9 "b" ))))))
(assert (not (= "" (str.toLower (str.++ (str.toLower sym6 )sym7 "A" )))))
(assert (str.contains (str.toLower (str.++ sym7 sym5 ))"" ))
(assert (not (= sym6 "" )))
(assert (not (= (str.++ sym7 "A" )"" )))
(assert (not (= "" (str.++ sym8 sym6 ))))
(assert (not (= (str.toLower (str.++ sym8 sym6 ))"a" )))
(assert (str.contains (str.toLower (str.toLower (str.++ sym5 sym7 )))"" ))
(assert (not (= (str.toLower (str.++ (str.++ sym7 sym5 )"a" ))"" )))
(assert (not (= (str.toLower (str.toLower sym5 ))"bA" )))
(assert (str.contains (str.++ (str.toLower sym5 )"B" )"B" ))
(assert (str.contains (str.toLower sym5 )"" ))
(assert (str.contains (str.++ (str.toLower sym6 )sym7 "A" )"" ))
(assert (str.contains (str.toLower (str.++ (str.toLower sym5 )"B" ))"" ))
(assert (not (= "" (str.++ (str.toLower (str.++ sym8 sym6 ))(str.toLower (str.++ sym9 "b" ))))))
(assert (not (= "" (str.++ sym7 sym5 ))))
(assert (not (= (str.toLower sym8 )"aa" )))
(assert (not (= (str.toLower sym5 )"" )))
(assert (str.contains (str.++ (str.toLower (str.++ sym5 sym7 ))"A" )"" ))
(assert (not (= (str.++ (str.++ sym7 "A" )"a" )"a" )))
(check-sat)
(get-model)
(exit)
